NAME : local_9
TYPE : ATSP
DIMENSION : 15
EDGE_WEIGHT_TYPE : EXPLICIT
EDGE_WEIGHT_FORMAT : FULL_MATRIX
EDGE_WEIGHT_SECTION
0 739 922 842 10000000 156 10000000 10000000 10000000 912 10000000 774 10000000 837 803 
0 0 240 547 10000000 646 10000000 10000000 10000000 892 10000000 10000000 10000000 10000000 10000000 
0 240 0 456 10000000 807 10000000 10000000 10000000 841 10000000 10000000 10000000 10000000 10000000 
0 547 456 0 10000000 690 10000000 10000000 10000000 390 10000000 926 10000000 10000000 10000000 
0 10000000 10000000 10000000 0 10000000 10000000 698 294 10000000 972 10000000 468 761 723 
0 646 807 690 10000000 0 10000000 10000000 10000000 763 10000000 705 10000000 933 900 
0 10000000 10000000 10000000 10000000 10000000 0 362 806 10000000 172 10000000 567 373 438 
0 10000000 10000000 10000000 698 10000000 362 0 534 10000000 293 10000000 304 357 392 
0 10000000 10000000 10000000 294 10000000 806 534 0 10000000 795 10000000 253 514 474 
0 892 841 390 10000000 763 10000000 10000000 10000000 0 10000000 668 10000000 10000000 10000000 
0 10000000 10000000 10000000 972 10000000 172 293 795 10000000 0 10000000 545 420 479 
0 10000000 10000000 926 10000000 705 10000000 10000000 10000000 668 10000000 0 10000000 10000000 10000000 
0 10000000 10000000 10000000 468 10000000 567 304 253 10000000 545 10000000 0 304 283 
0 10000000 10000000 10000000 761 950 373 357 514 10000000 420 10000000 304 0 76 
0 10000000 10000000 10000000 10000000 10000000 10000000 10000000 10000000 10000000 10000000 10000000 10000000 10000000 0 
EOF